(declare-fun temp14701_1 () (_ BitVec 64))
(declare-fun temp14701_2 () (_ BitVec 64))
(declare-fun var77740 () (_ BitVec 64))
(declare-fun k!0 () Bool)
(declare-fun ARGNAME_filter_NAMEEND_DIM () (_ BitVec 64))
(declare-fun ARGNAME_data_format_NAMEEND_STRFMT () (_ BitVec 64))
(declare-fun temp14701_3 () (_ BitVec 64))
(declare-fun ARGNAME_out_backprop_NAMEEND_DIM () (_ BitVec 64))
(declare-fun var77770 () (_ BitVec 64))
(declare-fun temp14701_4 () (_ BitVec 64))
(declare-fun temp14701_5 () (_ BitVec 64))
(declare-fun ARGNAME_filter_NAMEEND_DIMSIZE
             ()
             (Array (_ BitVec 64) (_ BitVec 64)))
(declare-fun temp14701_6 () (_ BitVec 64))
(declare-fun temp14701_7 () (_ BitVec 64))
(declare-fun temp14701_8 () (_ BitVec 64))
(declare-fun temp14701_9 () (_ BitVec 64))
(declare-fun temp14701_10 () (_ BitVec 64))
(declare-fun temp14701_11 () (_ BitVec 64))
(declare-fun temp14701_12 () (_ BitVec 64))
(declare-fun temp14701_13 () (_ BitVec 64))
(declare-fun temp14701_14 () (_ BitVec 64))
(declare-fun temp14701_15 () (_ BitVec 64))
(declare-fun temp14701_16 () (_ BitVec 64))
(declare-fun temp14701_17 () (_ BitVec 64))
(declare-fun temp14701_18 () (_ BitVec 64))
(declare-fun var77799 () (_ BitVec 64))
(declare-fun temp14701_19 () (_ BitVec 64))
(declare-fun ARGNAME_out_backprop_NAMEEND_DIMSIZE
             ()
             (Array (_ BitVec 64) (_ BitVec 64)))
(declare-fun temp14701_20 () (_ BitVec 64))
(declare-fun temp14701_21 () (_ BitVec 64))
(declare-fun temp14701_22 () (_ BitVec 64))
(declare-fun temp14701_23 () (_ BitVec 64))
(declare-fun temp14701_24 () (_ BitVec 64))
(declare-fun temp14701_25 () (_ BitVec 64))
(declare-fun temp14701_26 () (_ BitVec 64))
(declare-fun temp14701_27 () (_ BitVec 64))
(declare-fun temp14701_28 () (_ BitVec 64))
(declare-fun temp14701_29 () (_ BitVec 64))
(declare-fun temp14701_30 () (_ BitVec 64))
(declare-fun temp14701_31 () (_ BitVec 64))
(declare-fun temp14701_32 () (_ BitVec 64))
(declare-fun var77832 () (_ BitVec 64))
(declare-fun temp14701_33 () (_ BitVec 64))
(declare-fun temp14701_34 () (_ BitVec 64))
(declare-fun var77833 () (_ BitVec 64))
(declare-fun var77834 () (_ BitVec 64))
(declare-fun temp14701_35 () (_ BitVec 64))
(declare-fun temp14701_36 () (_ BitVec 64))
(declare-fun var275510 () (_ BitVec 64))
(declare-fun temp14701_37 () (_ BitVec 64))
(declare-fun var275528 () (_ BitVec 64))
(declare-fun temp14701_38 () (_ BitVec 64))
(declare-fun temp14701_39 () (_ BitVec 64))
(declare-fun var406582 () (_ BitVec 64))
(declare-fun temp14701_40 () (_ BitVec 64))
(declare-fun var406600 () (_ BitVec 64))
(declare-fun temp14701_41 () (_ BitVec 64))
(declare-fun temp14701_42 () (_ BitVec 64))
(declare-fun var537654 () (_ BitVec 64))
(declare-fun temp14701_43 () (_ BitVec 64))
(declare-fun var537672 () (_ BitVec 64))
(declare-fun temp14701_44 () (_ BitVec 64))
(declare-fun temp14701_46 () (_ BitVec 64))
(declare-fun temp14701_45 () (_ BitVec 64))
(declare-fun temp14701_48 () (_ BitVec 64))
(declare-fun temp14701_47 () (_ BitVec 64))
(declare-fun temp14701_50 () (_ BitVec 64))
(declare-fun temp14701_49 () (_ BitVec 64))
(declare-fun temp14701_52 () (_ BitVec 64))
(declare-fun temp14701_51 () (_ BitVec 64))
(declare-fun temp14701_54 () (_ BitVec 64))
(declare-fun temp14701_53 () (_ BitVec 64))
(declare-fun temp14701_55 () (_ BitVec 64))
(declare-fun var730187 () (_ BitVec 64))
(declare-fun var730166 () (_ BitVec 64))
(declare-fun var664598 () (_ BitVec 64))
(declare-fun temp14701_56 () (_ BitVec 64))
(declare-fun temp14701_57 () (_ BitVec 64))
(declare-fun var795723 () (_ BitVec 64))
(declare-fun var795702 () (_ BitVec 64))
(declare-fun var664608 () (_ BitVec 64))
(declare-fun temp14701_58 () (_ BitVec 64))
(declare-fun temp14701_59 () (_ BitVec 64))
(declare-fun var1057842 () (_ BitVec 64))
(declare-fun temp14701_60 () (_ BitVec 64))
(declare-fun var1123378 () (_ BitVec 64))
(declare-fun temp14701_61 () (_ BitVec 64))
(declare-fun var1188914 () (_ BitVec 64))
(declare-fun temp14701_62 () (_ BitVec 64))
(declare-fun var78184 () (_ BitVec 64))
(assert (or (= ARGNAME_data_format_NAMEEND_STRFMT #x0000000000000000)
    (= ARGNAME_data_format_NAMEEND_STRFMT #x0000000000000001)
    (= ARGNAME_data_format_NAMEEND_STRFMT #x0000000000000002)
    (= ARGNAME_data_format_NAMEEND_STRFMT #x0000000000000003)
    (= ARGNAME_data_format_NAMEEND_STRFMT #x0000000000000004)
    (= ARGNAME_data_format_NAMEEND_STRFMT #x0000000000000005)))
(assert (= temp14701_1 #x0000000000000005))
(assert (= var77740
   (ite (= ARGNAME_filter_NAMEEND_DIM temp14701_1)
        #x0000000000000001
        #x0000000000000000)))
(assert (= temp14701_2 #x0000000000000001))
(assert (= var77740 temp14701_2))
(assert (= temp14701_3 #x0000000000000005))
(assert (= var77770
   (ite (= ARGNAME_out_backprop_NAMEEND_DIM temp14701_3)
        #x0000000000000001
        #x0000000000000000)))
(assert (= temp14701_4 #x0000000000000001))
(assert (= var77770 temp14701_4))
(assert (= temp14701_5 #x0000000000000000))
(assert (= temp14701_6 (select ARGNAME_filter_NAMEEND_DIMSIZE temp14701_5)))
(assert (= temp14701_7 #x0000000000000001))
(assert (= temp14701_8 (select ARGNAME_filter_NAMEEND_DIMSIZE temp14701_7)))
(assert (= temp14701_9 #x0000000000000002))
(assert (= temp14701_10 (select ARGNAME_filter_NAMEEND_DIMSIZE temp14701_9)))
(assert (= temp14701_11 #x0000000000000003))
(assert (= temp14701_12 (select ARGNAME_filter_NAMEEND_DIMSIZE temp14701_11)))
(assert (= temp14701_13 #x0000000000000004))
(assert (= temp14701_14 (select ARGNAME_filter_NAMEEND_DIMSIZE temp14701_13)))
(assert (= temp14701_15 #x0000000000000005))
(assert (= temp14701_16 (select ARGNAME_filter_NAMEEND_DIMSIZE temp14701_15)))
(assert (= temp14701_17 #x0000000000000003))
(assert (= temp14701_18 (select ARGNAME_filter_NAMEEND_DIMSIZE temp14701_17)))
(assert (= var77799 temp14701_18))
(assert (= temp14701_19 #x0000000000000000))
(assert (= temp14701_20 (select ARGNAME_out_backprop_NAMEEND_DIMSIZE temp14701_19)))
(assert (= temp14701_21 #x0000000000000001))
(assert (= temp14701_22 (select ARGNAME_out_backprop_NAMEEND_DIMSIZE temp14701_21)))
(assert (= temp14701_23 #x0000000000000002))
(assert (= temp14701_24 (select ARGNAME_out_backprop_NAMEEND_DIMSIZE temp14701_23)))
(assert (= temp14701_25 #x0000000000000003))
(assert (= temp14701_26 (select ARGNAME_out_backprop_NAMEEND_DIMSIZE temp14701_25)))
(assert (= temp14701_27 #x0000000000000004))
(assert (= temp14701_28 (select ARGNAME_out_backprop_NAMEEND_DIMSIZE temp14701_27)))
(assert (= temp14701_29 #x0000000000000005))
(assert (= temp14701_30 (select ARGNAME_out_backprop_NAMEEND_DIMSIZE temp14701_29)))
(assert (= temp14701_31 #x0000000000000004))
(assert (= temp14701_32 (select ARGNAME_out_backprop_NAMEEND_DIMSIZE temp14701_31)))
(assert (= var77832 temp14701_32))
(assert (= temp14701_33 #x0000000000000004))
(assert (= temp14701_34 (select ARGNAME_filter_NAMEEND_DIMSIZE temp14701_33)))
(assert (= var77833 temp14701_34))
(assert (= var77834 (ite (= var77832 var77833) #x0000000000000001 #x0000000000000000)))
(assert (= temp14701_35 #x0000000000000001))
(assert (= var77834 temp14701_35))
(assert (= temp14701_36 #x0000000000000001))
(assert (= var275510 temp14701_36))
(assert (= temp14701_37 #x0000000000000001))
(assert (= var275528
   (ite (bvslt var275510 temp14701_37) #x0000000000000001 #x0000000000000000)))
(assert (= temp14701_38 #x0000000000000000))
(assert (= var275528 temp14701_38))
(assert (= temp14701_39 #x0000000000000001))
(assert (= var406582 temp14701_39))
(assert (= temp14701_40 #x0000000000000001))
(assert (= var406600
   (ite (bvslt var406582 temp14701_40) #x0000000000000001 #x0000000000000000)))
(assert (= temp14701_41 #x0000000000000000))
(assert (= var406600 temp14701_41))
(assert (= temp14701_42 #x0000000000000001))
(assert (= var537654 temp14701_42))
(assert (= temp14701_43 #x0000000000000001))
(assert (= var537672
   (ite (bvslt var537654 temp14701_43) #x0000000000000001 #x0000000000000000)))
(assert (= temp14701_44 #x0000000000000000))
(assert (= var537672 temp14701_44))
(assert (= temp14701_46 #x0000000000000000))
(assert (= temp14701_45 temp14701_46))
(assert (= temp14701_48 #x0000000000000000))
(assert (= temp14701_47 temp14701_48))
(assert (= temp14701_50 #x00000000000000ff))
(assert (= temp14701_49 temp14701_50))
(assert (= temp14701_52 #x00000000000000ff))
(assert (= temp14701_51 temp14701_52))
(assert (= temp14701_54 #x00000000000000ff))
(assert (= temp14701_53 temp14701_54))
(assert (= temp14701_55 #x0000000000000000))
(assert (= var730187 temp14701_55))
(assert (= var730166 var730187))
(assert (= var664598 var730166))
(assert (= temp14701_56 #x0000000000000000))
(assert (= var664598 temp14701_56))
(assert (= temp14701_57 #x0000000000000000))
(assert (= var795723 temp14701_57))
(assert (= var795702 var795723))
(assert (= var664608 var795702))
(assert (= temp14701_58 #x0000000000000000))
(assert (= var664608 temp14701_58))
(assert (= temp14701_59 #x0000000000008000))
(assert (= var1057842 temp14701_59))
(assert (= temp14701_60 #x0000000000040000))
(assert (= var1123378 temp14701_60))
(assert (= temp14701_61 #x0000000000200000))
(assert (= var1188914 temp14701_61))
(assert (= temp14701_62 #x0000000000000001))
(assert (= var78184 temp14701_62))
(model-add temp14701_1 () (_ BitVec 64) #x0000000000000005)
(model-add temp14701_2 () (_ BitVec 64) #x0000000000000001)
(model-add var77740 () (_ BitVec 64) #x0000000000000001)
(model-del k!0)
(model-add ARGNAME_filter_NAMEEND_DIM
           ()
           (_ BitVec 64)
           (ite k!0 #x0000000000000005 (bvnot #x0000000000000005)))


